
******************************************************************************
This program contains Ipopt, a library for large-scale nonlinear optimization.
 Ipopt is released as open source code under the Eclipse Public License (EPL).
         For more information visit http://projects.coin-or.org/Ipopt
******************************************************************************

This is Ipopt version 3.12.6, running with linear solver ma57.

Number of nonzeros in equality constraint Jacobian...:      226
Number of nonzeros in inequality constraint Jacobian.:      188
Number of nonzeros in Lagrangian Hessian.............:      127

Total number of variables............................:       38
                     variables with only lower bounds:        0
                variables with lower and upper bounds:       10
                     variables with only upper bounds:        0
Total number of equality constraints.................:       28
Total number of inequality constraints...............:       54
        inequality constraints with only lower bounds:        0
   inequality constraints with lower and upper bounds:       14
        inequality constraints with only upper bounds:       40

iter    objective    inf_pr   inf_du lg(mu)  ||d||  lg(rg) alpha_du alpha_pr  ls
   0  8.2920320e+03 1.69e-01 3.29e+00  -1.0 0.00e+00    -  0.00e+00 0.00e+00   0
   1  8.1156101e+03 1.17e-02 1.41e+01  -1.0 6.94e-01   0.0 1.86e-01 1.00e+00f  1
   2  8.0915724e+03 9.08e-03 4.45e+00  -1.0 1.53e-01  -0.5 9.90e-01 1.00e+00f  1
   3  8.0960772e+03 1.32e-03 1.48e-01  -1.0 2.77e-02  -1.0 9.91e-01 1.00e+00h  1
   4  8.0884285e+03 1.66e-04 1.70e-02  -1.7 3.56e-02  -1.4 1.00e+00 1.00e+00f  1
   5  8.0843886e+03 1.64e-04 5.20e-01  -2.5 3.60e-02  -1.9 8.74e-01 6.54e-01f  1
   6  8.0817710e+03 3.43e-04 8.41e-03  -2.5 3.63e-02  -2.4 1.00e+00 9.99e-01f  1
   7  8.0815285e+03 7.38e-05 2.91e-03  -3.8 1.76e-02  -2.9 9.43e-01 9.36e-01h  1
   8  8.0815578e+03 1.31e-06 3.82e-05  -3.8 1.01e-03  -3.3 1.00e+00 1.00e+00h  1
   9  8.0815266e+03 4.40e-06 5.22e-05  -5.7 1.80e-03  -3.8 1.00e+00 9.99e-01h  1
iter    objective    inf_pr   inf_du lg(mu)  ||d||  lg(rg) alpha_du alpha_pr  ls
  10  8.0815261e+03 2.29e+01 1.97e-03  -5.7 3.64e+00    -  1.00e+00 1.00e+00h  1
  11  8.0815263e+03 5.80e+00 4.79e-04  -5.7 2.33e+02    -  1.00e+00 1.00e+00h  1
  12  8.0815265e+03 1.41e+00 5.74e-05  -5.7 2.18e+02    -  1.00e+00 1.00e+00h  1
  13  8.0815266e+03 1.84e-01 5.24e-05  -5.7 1.41e+01    -  1.00e+00 1.00e+00h  1
  14  8.0815266e+03 4.42e-03 5.79e-06  -5.7 8.70e-01    -  1.00e+00 1.00e+00h  1
  15  8.0815266e+03 2.73e-06 1.05e-08  -5.7 1.51e-02    -  1.00e+00 1.00e+00h  1
  16  8.0815262e+03 4.96e-12 3.30e-10  -8.6 9.95e-06    -  1.00e+00 1.00e+00h  1

Number of Iterations....: 16

                                   (scaled)                 (unscaled)
Objective...............:   2.0203806122439536e+02    8.0815262149652763e+03
Dual infeasibility......:   3.3017233391774425e-10    1.3206899511122075e-08
Constraint violation....:   4.9640291877039999e-12    4.9640291877039999e-12
Complementarity.........:   2.6679213646027074e-09    1.0671690431416253e-07
Overall NLP error.......:   2.6679213646027074e-09    1.0671690431416253e-07


Number of objective function evaluations             = 17
Number of objective gradient evaluations             = 17
Number of equality constraint evaluations            = 17
Number of inequality constraint evaluations          = 17
Number of equality constraint Jacobian evaluations   = 17
Number of inequality constraint Jacobian evaluations = 17
Number of Lagrangian Hessian evaluations             = 16
Total CPU secs in IPOPT (w/o function evaluations)   =      0.010
Total CPU secs in NLP function evaluations           =      0.007

EXIT: Optimal Solution Found.

************************ CUTEst statistics ************************


 Package used            :  IPOPT
 Problem                 :  ACOPR14   
 # variables             =              38
 # constraints           =              82
 # objective functions   =        0.3500000E+02
 # objective gradients   =        0.1800000E+02
 # objective Hessians    =        0.1700000E+02
 # Hessian-vector prdct  =        0.0000000E+00
 # constraints functions =        0.3600000E+02
 # constraints gradients =        0.1900000E+02
 # constraints Hessians  =        0.1700000E+02
 Exit code               =               0
 Final f                 =   0.8081526E+04
 Set up time             =            0.00 seconds
 Solve time              =            0.05 seconds


******************************************************************

System Time =       0.0120000001 s.
